11 4  12 0  13 0  14 0  15 0  16 0  17 0  18 0  19 0  0 0  1 0  2 0  3 0  4 0  5 0  6 0  7 0  8 0  9 0  10 0  
11 4  12 0  13 0  14 0  15 0  16 0  17 0  18 0  19 0  0 0  1 0  2 0  3 0  4 0  5 0  6 0  7 0  8 0  9 0  10 0  
11 4  12 0  13 0  14 0  15 0  16 0  17 0  18 0  19 0  0 0  1 0  2 0  3 0  4 0  5 0  6 0  7 0  8 0  9 0  10 0  
1 4  2 0  3 0  4 0  5 0  6 0  7 0  8 0  9 0  10 0  11 0  12 0  13 0  14 0  15 0  16 0  17 0  18 0  19 0  0 0  
11 4  12 0  13 0  14 0  15 0  16 0  17 0  18 0  19 0  0 0  1 0  2 0  3 0  4 0  5 0  6 0  7 0  8 0  9 0  10 0  
11 4  12 0  13 0  14 0  15 0  16 0  17 0  18 0  19 0  0 0  1 0  2 0  3 0  4 0  5 0  6 0  7 0  8 0  9 0  10 0  
3 0  8 0  6 2  9 0  7 0  8 0  5 0  11 0  10 0  4 3  13 0  14 0  15 0  16 0  17 0  18 0  19 0  0 0  1 0  2 0  
3 0  3 0  6 2  2 0  8 0  9 0  1 0  19 0  11 0  10 0  12 0  14 0  15 0  17 0  13 0  5 0  3 0  16 0  0 0  4 3  
11 4  12 0  13 0  14 0  15 0  16 0  17 0  18 0  19 0  0 0  1 0  2 0  3 0  4 0  5 0  6 0  7 0  8 0  9 0  10 0  
11 4  12 0  13 0  14 0  15 0  16 0  17 0  18 0  19 0  0 0  1 0  2 0  3 0  4 0  5 0  6 0  7 0  8 0  9 0  10 0  
11 4  12 0  13 0  14 0  15 0  16 0  17 0  18 0  19 0  0 0  1 0  2 0  3 0  4 0  5 0  6 0  7 0  8 0  9 0  10 0  
11 4  12 0  13 0  14 0  15 0  16 0  17 0  18 0  19 0  0 0  1 0  2 0  3 0  4 0  5 0  6 0  7 0  8 0  9 0  10 0  
